FEATURES = {documents,spreadsheets,groupChat,1to1messages,desktopAccess,tabletAccess,mobileAccess,customAndAdvancedLiveApps,singleSignOn,enterpriseAPI,customization,accessSalesforceAnywhereApp,integratedChatWithinSalesforce,spreadsheetsWithLiveSalesforceData,twoWaySyncWithLiveSalesforceData,embedDocumentsInAllSalesforceObjects};
USAGE_LIMITS = {};
PLANS = {STARTER,PLUS,SALESFORCE_ANYWHERE_ADVANCED};
ADDONS = {};

plans_prices = [12.0,10.0,25.0,75.0];
addons_prices = [];

plans_features = array2d(PLANS, FEATURES, [
    % STARTER
    1,1,1,1,1,1,1,0,0,0,0,0,0,0,0,0,
    % PLUS
    1,1,1,1,1,1,1,1,1,1,1,0,0,0,0,0,
    % SALESFORCE_ANYWHERE_ADVANCED
    1,1,1,1,1,1,1,1,1,1,1,1,1,1,1,1
]);
plans_usage_limits = array2d(PLANS, USAGE_LIMITS, [
    % STARTER
    ,
    % PLUS
    ,
    % SALESFORCE_ANYWHERE_ADVANCED
    ,
]);

linked_features = array2d(USAGE_LIMITS, FEATURES, [
    % 
    ,
]);

addons_features = array2d(ADDONS, FEATURES, [
    % 
    ,
]);
addons_usage_limits = array2d(ADDONS, USAGE_LIMITS, [
    % 
    ,
]);
addons_usage_limits_extensions = array2d(ADDONS, USAGE_LIMITS, [
    % 
    ,
]);
addons_available_for = array2d(ADDONS, PLANS, [
    % 
    ,
]);

addons_depends_on = array2d(ADDONS, ADDONS, [
    % 
    ,
]);